2 15
405 335 
0 1 1 25 19 96 48 1
1 78 69 1 4 93 93 2
2 47 47 24 18 95 85 2
3 98 92 49 39 20 90 1
4 64 73 18 24 1 63 2
5 25 23 80 77 44 10 2
6 66 58 103 93 16 78 2
7 72 77 23 15 62 53 1
8 79 70 43 45 40 15 2
9 96 91 39 46 43 22 1
10 21 13 49 59 99 69 1
11 68 72 74 83 96 64 2
12 38 33 66 76 83 1 1
13 81 73 10 20 41 81 1
14 15 18 53 52 14 69 2
